
Gurobi 9.5.2 (mac64[arm]) logging started Wed Apr 19 12:22:03 2023

Set parameter LogFile to value "Java/output/pure_mip/scenario_seed_2_nJob_20_machineCount_1/mip_increment_5/log.txt"
Gurobi Optimizer version 9.5.2 build v9.5.2rc0 (mac64[arm])
Thread count: 8 physical cores, 8 logical processors, using up to 8 threads
Optimize a model with 282 rows, 1798 columns and 7332 nonzeros
Model fingerprint: 0x658674f1
Variable types: 0 continuous, 1798 integer (1798 binary)
Coefficient statistics:
  Matrix range     [1e+00, 2e+02]
  Objective range  [4e+00, 2e+06]
  Bounds range     [1e+00, 1e+00]
  RHS range        [1e+00, 1e+00]
Presolve removed 17 rows and 300 columns
Presolve time: 0.01s
Presolved: 265 rows, 1498 columns, 6198 nonzeros
Variable types: 0 continuous, 1498 integer (1498 binary)

Root relaxation: objective 7.040003e+04, 1118 iterations, 0.01 seconds (0.02 work units)

    Nodes    |    Current Node    |     Objective Bounds      |     Work
 Expl Unexpl |  Obj  Depth IntInf | Incumbent    BestBd   Gap | It/Node Time

     0     0 70400.0340    0  113          - 70400.0340      -     -    0s
H    0     0                    3600082.0000 70400.0340  98.0%     -    0s
H    0     0                    2855227.0000 70400.0340  97.5%     -    0s
H    0     0                    2301277.0000 70400.0340  96.9%     -    0s
H    0     0                    1786387.0000 73071.2378  95.9%     -    0s
H    0     0                    205627.00000 86450.6364  58.0%     -    0s
     0     0 86450.6364    0  145 205627.000 86450.6364  58.0%     -    0s
H    0     0                    205487.00000 86450.6364  57.9%     -    0s
     0     0 95156.5556    0  151 205487.000 95156.5556  53.7%     -    0s
     0     0 97305.3182    0  150 205487.000 97305.3182  52.6%     -    0s
     0     0 97305.3182    0  151 205487.000 97305.3182  52.6%     -    0s
     0     0 100340.000    0  180 205487.000 100340.000  51.2%     -    0s
     0     0 100340.000    0  168 205487.000 100340.000  51.2%     -    0s
     0     0 100340.000    0  119 205487.000 100340.000  51.2%     -    0s
     0     0 100340.000    0  162 205487.000 100340.000  51.2%     -    0s
     0     0 100340.000    0  171 205487.000 100340.000  51.2%     -    0s
     0     0 100340.000    0  171 205487.000 100340.000  51.2%     -    0s
     0     0 100340.000    0  175 205487.000 100340.000  51.2%     -    0s
H    0     0                    205467.00000 100340.000  51.2%     -    0s
     0     0 101161.880    0  124 205467.000 101161.880  50.8%     -    0s
     0     0 101254.811    0  131 205467.000 101254.811  50.7%     -    0s
     0     0 101260.664    0  134 205467.000 101260.664  50.7%     -    0s
     0     0 103884.973    0  129 205467.000 103884.973  49.4%     -    0s
H    0     0                    205037.00000 103884.973  49.3%     -    0s
     0     0 104821.136    0  138 205037.000 104821.136  48.9%     -    0s
H    0     0                    185077.00000 104821.136  43.4%     -    0s
     0     0 105627.631    0  126 185077.000 105627.631  42.9%     -    0s
     0     0 105761.619    0  123 185077.000 105761.619  42.9%     -    0s
     0     0 105761.854    0  127 185077.000 105761.854  42.9%     -    0s
H    0     0                    175957.00000 105761.854  39.9%     -    0s
     0     0 107498.938    0  144 175957.000 107498.938  38.9%     -    0s
H    0     0                    127092.00000 107498.938  15.4%     -    0s
H    0     0                    127052.00000 107498.938  15.4%     -    0s
     0     0 109336.907    0  143 127052.000 109336.907  13.9%     -    0s
     0     0 109419.832    0  143 127052.000 109419.832  13.9%     -    0s
     0     0 109461.635    0  146 127052.000 109461.635  13.8%     -    0s
     0     0 110582.782    0  126 127052.000 110582.782  13.0%     -    0s
     0     0 110694.316    0  117 127052.000 110694.316  12.9%     -    0s
     0     0 110694.316    0  124 127052.000 110694.316  12.9%     -    0s
     0     0 110694.316    0  112 127052.000 110694.316  12.9%     -    0s
     0     0 110694.316    0  106 127052.000 110694.316  12.9%     -    0s
     0     0 110694.316    0  115 127052.000 110694.316  12.9%     -    0s
     0     0 110694.316    0  109 127052.000 110694.316  12.9%     -    0s
H    0     0                    110702.00000 110694.316  0.01%     -    0s
     0     0 110694.316    0  109 110702.000 110694.316  0.01%     -    0s

Cutting planes:
  Gomory: 21
  Cover: 11
  Clique: 29
  MIR: 34
  StrongCG: 15
  GUB cover: 70
  Zero half: 19
  RLT: 10

Explored 1 nodes (8418 simplex iterations) in 0.48 seconds (0.51 work units)
Thread count was 8 (of 8 available processors)

Solution count 10: 110702 127052 127092 ... 1.78639e+06

Optimal solution found (tolerance 1.00e-04)
Best objective 1.107020000000e+05, best bound 1.107020000000e+05, gap 0.0000%
